objective value:                                  240
t_x15                                               1 	(obj:1)
t_x246                                              1 	(obj:2)
t_x247                                              1 	(obj:1)
t_x248                                              1 	(obj:1)
t_x310                                              1 	(obj:1)
t_x586                                              1 	(obj:1)
t_x1252                                             1 	(obj:1)
t_x1266                                             1 	(obj:1)
t_x1307                                             1 	(obj:1)
t_x1327                                             1 	(obj:1)
t_x1583                                             1 	(obj:1)
t_x1728                                             1 	(obj:1)
t_x1872                                             1 	(obj:1)
t_x2064                                             1 	(obj:1)
t_x2316                                             1 	(obj:1)
t_x2417                                             1 	(obj:1)
t_x2459                                             1 	(obj:1)
t_x2607                                             1 	(obj:1)
t_x2771                                             1 	(obj:1)
t_x2803                                             1 	(obj:1)
t_x2920                                             1 	(obj:1)
t_x2984                                             1 	(obj:1)
t_x3051                                             1 	(obj:1)
t_x3117                                             1 	(obj:1)
t_x3163                                             1 	(obj:1)
t_x3173                                             1 	(obj:1)
t_x3266                                             1 	(obj:1)
t_x3307                                             1 	(obj:1)
t_x3328                                             1 	(obj:1)
t_x3361                                             1 	(obj:1)
t_x3477                                             1 	(obj:1)
t_x3478                                             1 	(obj:1)
t_x3674                                             1 	(obj:1)
t_x3719                                             1 	(obj:1)
t_x3821                                             1 	(obj:1)
t_x4253                                             1 	(obj:1)
t_x4342                                             1 	(obj:1)
t_x4548                                             1 	(obj:1)
t_x4580                                             1 	(obj:1)
t_x4593                                             1 	(obj:1)
t_x5029                                             1 	(obj:1)
t_x5079                                             1 	(obj:1)
t_x5858                                             1 	(obj:1)
t_x5891                                             1 	(obj:1)
t_x5960                                             1 	(obj:1)
t_x5984                                             1 	(obj:1)
t_x6046                                             1 	(obj:1)
t_x6230                                             1 	(obj:1)
t_x6316                                             1 	(obj:1)
t_x6712                                             1 	(obj:1)
t_x6853                                             1 	(obj:1)
t_x6860                                             1 	(obj:1)
t_x6883                                             1 	(obj:1)
t_x7179                                             1 	(obj:1)
t_x7190                                             1 	(obj:1)
t_x7548                                             1 	(obj:1)
t_x7549                                             1 	(obj:1)
t_x7557                                             1 	(obj:1)
t_x7567                                             1 	(obj:1)
t_x7605                                             1 	(obj:1)
t_x7624                                             1 	(obj:1)
t_x7779                                             1 	(obj:1)
t_x7812                                             1 	(obj:1)
t_x8026                                             1 	(obj:1)
t_x8336                                             1 	(obj:1)
t_x8486                                             1 	(obj:1)
t_x8582                                             1 	(obj:1)
t_x9053                                             1 	(obj:1)
t_x9188                                             1 	(obj:1)
t_x9262                                             1 	(obj:1)
t_x9299                                             1 	(obj:1)
t_x9367                                             1 	(obj:1)
t_x10339                                            1 	(obj:1)
t_x10342                                            1 	(obj:1)
t_x10373                                            1 	(obj:1)
t_x10507                                            1 	(obj:1)
t_x10684                                            1 	(obj:1)
t_x10866                                            1 	(obj:1)
t_x10955                                            1 	(obj:1)
t_x10984                                            1 	(obj:1)
t_x11118                                            1 	(obj:1)
t_x11397                                            1 	(obj:1)
t_x11571                                            1 	(obj:1)
t_x11595                                            1 	(obj:1)
t_x11624                                            1 	(obj:1)
t_x11683                                            1 	(obj:1)
t_x11843                                            1 	(obj:1)
t_x11959                                            1 	(obj:1)
t_x11969                                            1 	(obj:1)
t_x12130                                            1 	(obj:1)
t_x12322                                            1 	(obj:1)
t_x12335                                            1 	(obj:1)
t_x12392                                            1 	(obj:1)
t_x12488                                            1 	(obj:1)
t_x12646                                            1 	(obj:1)
t_x12801                                            1 	(obj:1)
t_x13075                                            1 	(obj:1)
t_x13283                                            1 	(obj:1)
t_x14103                                            1 	(obj:1)
t_x14451                                            1 	(obj:1)
t_x14634                                            1 	(obj:1)
t_x15346                                            1 	(obj:1)
t_x15608                                            1 	(obj:1)
t_x17877                                            1 	(obj:2)
t_x17950                                            1 	(obj:1)
t_x18093                                            1 	(obj:1)
t_x18197                                            1 	(obj:1)
t_x18395                                            1 	(obj:1)
t_x18538                                            1 	(obj:2)
t_x18569                                            1 	(obj:1)
t_x18931                                            1 	(obj:1)
t_x19737                                            1 	(obj:1)
t_x19940                                            1 	(obj:2)
t_x20112                                            1 	(obj:1)
t_x20647                                            1 	(obj:1)
t_x20668                                            1 	(obj:2)
t_x20669                                            1 	(obj:2)
t_x21357                                            1 	(obj:1)
t_x22388                                            1 	(obj:1)
t_x23627                                            1 	(obj:1)
t_x23703                                            1 	(obj:1)
t_x23744                                            1 	(obj:1)
t_x23799                                            1 	(obj:1)
t_x24030                                            1 	(obj:1)
t_x24650                                            1 	(obj:1)
t_x26850                                            1 	(obj:1)
t_x30827                                            1 	(obj:1)
t_x30848                                            1 	(obj:1)
t_x30851                                            1 	(obj:1)
t_x30957                                            1 	(obj:1)
t_x32571                                            1 	(obj:1)
t_x32841                                            1 	(obj:1)
t_x33160                                            1 	(obj:2)
t_x33859                                            1 	(obj:1)
t_x37436                                            1 	(obj:1)
t_x38042                                            1 	(obj:2)
t_x38089                                            1 	(obj:2)
t_x38378                                            1 	(obj:2)
t_x38382                                            1 	(obj:1)
t_x38601                                            1 	(obj:2)
t_x38908                                            1 	(obj:2)
t_x38922                                            1 	(obj:1)
t_x39080                                            1 	(obj:2)
t_x39500                                            1 	(obj:1)
t_x39709                                            1 	(obj:1)
t_x39770                                            1 	(obj:1)
t_x40621                                            1 	(obj:1)
t_x40633                                            1 	(obj:1)
t_x40832                                            1 	(obj:1)
t_x41487                                            1 	(obj:1)
t_x41744                                            1 	(obj:1)
t_x41781                                            1 	(obj:1)
t_x42213                                            1 	(obj:2)
t_x43868                                            1 	(obj:1)
t_x44042                                            1 	(obj:2)
t_x44140                                            1 	(obj:2)
t_x44853                                            1 	(obj:2)
t_x45019                                            1 	(obj:2)
t_x45383                                            1 	(obj:2)
t_x45480                                            1 	(obj:1)
t_x45610                                            1 	(obj:1)
t_x45720                                            1 	(obj:2)
t_x46686                                            1 	(obj:1)
t_x47801                                            1 	(obj:1)
t_x47850                                            1 	(obj:1)
t_x47862                                            1 	(obj:1)
t_x47949                                            1 	(obj:1)
t_x47984                                            1 	(obj:1)
t_x48022                                            1 	(obj:1)
t_x48024                                            1 	(obj:2)
t_x48123                                            1 	(obj:1)
t_x48137                                            1 	(obj:1)
t_x48278                                            1 	(obj:1)
t_x48363                                            1 	(obj:1)
t_x49194                                            1 	(obj:1)
t_x49207                                            1 	(obj:1)
t_x49398                                            1 	(obj:1)
t_x52383                                            1 	(obj:1)
t_x53274                                            1 	(obj:1)
t_x53549                                            1 	(obj:2)
t_x55450                                            1 	(obj:2)
t_x55674                                            1 	(obj:2)
t_x55675                                            1 	(obj:1)
t_x55807                                            1 	(obj:2)
t_x55824                                            1 	(obj:2)
t_x55928                                            1 	(obj:2)
t_x56144                                            1 	(obj:2)
t_x56704                                            1 	(obj:2)
t_x56950                                            1 	(obj:2)
t_x57451                                            1 	(obj:2)
t_x57539                                            1 	(obj:2)
t_x57878                                            1 	(obj:2)
t_x59361                                            1 	(obj:2)
t_x59388                                            1 	(obj:2)
t_x59390                                            1 	(obj:2)
t_x59415                                            1 	(obj:2)
t_x60574                                            1 	(obj:1)
t_x61276                                            1 	(obj:1)
t_x62266                                            1 	(obj:2)
t_x62371                                            1 	(obj:1)
t_x62384                                            1 	(obj:1)
t_x62413                                            1 	(obj:1)
